153
1371
112
0 3
0 68
0 69
0 79
1 2
1 5
1 17
1 18
1 19
1 22
1 48
1 71
1 78
1 133
1 144
1 145
2 5
2 71
3 9
3 11
3 13
3 16
3 18
3 19
3 68
3 69
3 79
3 145
4 6
4 7
4 12
4 14
4 21
4 22
4 23
4 32
4 34
4 44
4 60
4 61
4 64
4 65
4 70
4 72
4 80
4 123
4 139
4 146
5 10
5 15
5 20
5 24
5 25
5 26
5 71
5 109
6 7
6 12
6 14
6 21
6 22
6 23
6 32
6 34
6 44
7 12
7 14
7 21
7 22
7 23
7 32
7 34
7 44
7 47
7 63
7 66
7 73
7 74
7 75
7 76
7 84
7 95
7 101
7 104
7 152
8 10
8 14
8 15
8 30
8 109
9 11
9 13
9 16
9 18
9 19
9 28
9 31
9 33
9 37
9 69
9 111
9 115
9 145
10 14
10 15
10 20
10 24
10 25
10 26
10 30
10 71
10 109
11 13
11 16
11 18
11 19
11 35
11 36
11 38
11 39
11 46
11 65
11 69
11 87
11 95
11 108
11 112
11 116
11 117
11 120
11 122
11 126
11 131
11 133
11 134
11 138
11 140
11 144
11 145
11 147
12 14
12 21
12 22
12 23
12 27
12 32
12 34
12 44
12 70
12 72
12 80
12 105
12 118
12 123
12 139
12 143
12 146
13 16
13 18
13 19
13 28
13 31
13 33
13 37
13 43
13 45
13 47
13 51
13 52
13 69
13 96
13 97
13 111
13 115
13 145
13 147
14 15
14 21
14 22
14 23
14 28
14 30
14 32
14 34
14 44
14 90
14 109
15 20
15 24
15 25
15 26
15 30
15 53
15 54
15 55
15 64
15 71
15 109
15 115
15 126
15 140
16 18
16 19
16 35
16 36
16 38
16 39
16 46
16 65
16 69
16 145
17 18
17 19
17 22
17 48
17 78
17 133
17 144
17 145
18 19
18 22
18 48
18 69
18 78
18 133
18 144
18 145
19 22
19 28
19 31
19 33
19 37
19 40
19 42
19 44
19 48
19 61
19 64
19 69
19 78
19 111
19 115
19 133
19 144
19 145
20 24
20 25
20 26
20 71
20 109
21 22
21 23
21 28
21 32
21 34
21 44
21 90
22 23
22 27
22 32
22 34
22 44
22 48
22 78
22 105
22 118
22 133
22 143
22 144
22 145
23 28
23 32
23 34
23 44
23 47
23 63
23 66
23 73
23 74
23 75
23 76
23 90
24 25
24 26
24 37
24 38
24 56
24 57
24 58
24 59
24 71
24 102
24 103
24 109
24 112
24 116
24 129
24 132
24 136
24 137
24 139
24 141
24 146
24 148
24 151
25 26
25 37
25 56
25 57
25 58
25 59
25 71
25 103
25 109
25 127
25 135
25 143
25 149
26 37
26 56
26 57
26 58
26 59
26 71
26 84
26 103
26 109
26 142
26 150
26 152
27 29
27 30
27 32
27 34
27 105
27 106
27 109
27 118
27 143
28 31
28 33
28 37
28 40
28 42
28 44
28 48
28 61
28 64
28 78
28 90
28 111
28 115
28 120
28 121
28 133
28 134
28 144
28 145
29 30
29 32
29 34
29 105
29 106
29 109
29 118
29 143
30 32
30 34
30 105
30 106
30 109
30 118
30 143
31 33
31 37
31 43
31 45
31 47
31 51
31 52
31 96
31 97
31 111
31 115
31 147
32 34
32 44
32 70
32 72
32 80
32 105
32 106
32 109
32 118
32 123
32 139
32 143
32 146
33 37
33 43
33 45
33 47
33 51
33 52
33 62
33 63
33 66
33 96
33 97
33 111
33 115
33 147
34 44
34 105
34 106
34 109
34 118
34 143
35 36
35 38
35 39
35 46
35 58
35 65
35 110
35 113
35 114
35 119
35 121
35 123
35 124
35 125
35 152
36 38
36 39
36 46
36 65
37 38
37 40
37 42
37 44
37 56
37 57
37 58
37 59
37 61
37 64
37 102
37 103
37 111
37 112
37 115
37 116
37 129
37 146
37 148
37 151
38 39
38 46
38 56
38 65
38 87
38 102
38 108
38 112
38 116
38 117
38 129
38 131
38 146
38 148
38 151
39 46
39 65
39 87
39 108
39 112
39 116
39 117
39 131
40 42
40 44
40 48
40 61
40 64
40 78
40 90
40 115
40 120
40 121
40 133
40 134
40 144
40 145
41 46
41 49
41 65
41 92
42 44
42 61
42 64
42 115
43 45
43 47
43 51
43 52
43 96
43 97
43 111
43 147
44 48
44 61
44 64
44 78
44 90
44 115
44 120
44 121
44 133
44 134
44 144
44 145
45 47
45 51
45 52
45 62
45 63
45 66
45 96
45 97
45 111
45 147
46 49
46 58
46 65
46 92
46 110
46 113
46 114
46 119
46 121
46 123
46 124
46 125
46 152
47 51
47 52
47 62
47 63
47 66
47 73
47 74
47 75
47 76
47 84
47 95
47 96
47 97
47 101
47 104
47 111
47 147
47 152
48 78
48 90
48 120
48 121
48 133
48 134
48 144
48 145
49 50
49 51
49 52
49 65
49 81
49 92
49 93
49 96
49 97
49 122
49 147
50 51
50 52
50 81
50 92
50 93
50 96
50 97
50 122
50 147
51 52
51 81
51 92
51 93
51 96
51 97
51 111
51 122
51 147
52 62
52 63
52 66
52 81
52 92
52 93
52 96
52 97
52 111
52 122
52 147
53 54
53 55
53 64
53 77
53 79
53 80
53 83
53 89
53 91
53 95
53 98
53 99
53 100
53 101
53 102
53 104
53 110
53 115
53 119
53 123
53 124
53 126
53 132
53 139
53 140
53 146
53 148
54 55
54 64
54 89
54 91
54 95
54 98
54 99
54 100
54 101
54 102
54 104
54 115
54 126
54 140
55 64
55 115
55 126
55 140
56 57
56 58
56 59
56 63
56 74
56 78
56 81
56 82
56 102
56 103
56 112
56 114
56 116
56 121
56 125
56 129
56 132
56 136
56 137
56 139
56 141
56 146
56 148
56 151
57 58
57 59
57 84
57 103
57 142
57 150
57 152
58 59
58 65
58 103
58 110
58 113
58 114
58 127
58 135
58 143
58 149
59 103
60 61
60 64
60 65
60 70
60 80
60 123
61 64
61 65
61 70
61 80
61 115
61 123
62 63
62 66
62 97
62 111
63 66
63 73
63 74
63 75
63 76
63 78
63 81
63 82
63 97
63 111
63 114
63 121
63 125
63 137
63 141
64 65
64 70
64 80
64 115
64 123
64 126
64 140
65 70
65 80
65 92
65 110
65 113
65 114
65 123
66 73
66 74
66 75
66 76
66 85
66 86
66 87
66 88
66 91
66 97
66 100
66 102
66 111
66 136
67 68
67 69
67 71
67 77
67 79
67 89
67 119
67 132
68 69
68 71
68 77
68 79
68 89
68 119
68 132
69 71
69 77
69 79
69 89
69 119
69 132
69 145
70 72
70 80
70 123
70 139
70 146
71 77
71 79
71 89
71 109
71 119
71 132
72 80
72 123
72 139
72 146
73 74
73 75
73 76
74 75
74 76
74 78
74 81
74 82
74 114
74 121
74 125
74 137
74 141
75 76
75 84
75 85
75 86
75 87
75 88
75 91
75 100
75 102
75 118
75 128
75 131
75 136
76 84
76 95
76 101
76 104
76 152
77 79
77 80
77 83
77 89
77 98
77 110
77 119
77 123
77 124
77 132
77 139
77 146
77 148
78 81
78 82
78 90
78 92
78 93
78 94
78 96
78 97
78 103
78 114
78 120
78 121
78 125
78 133
78 134
78 137
78 141
78 144
78 145
79 80
79 83
79 89
79 98
79 110
79 119
79 123
79 124
79 132
79 139
79 146
79 148
80 83
80 89
80 98
80 110
80 119
80 123
80 124
80 132
80 139
80 146
80 148
81 82
81 90
81 92
81 93
81 94
81 96
81 97
81 103
81 114
81 121
81 122
81 125
81 137
81 141
81 147
82 90
82 92
82 93
82 94
82 96
82 97
82 103
82 114
82 121
82 125
82 137
82 141
83 89
83 98
83 110
83 119
83 123
83 124
83 132
83 139
83 146
83 148
84 85
84 87
84 91
84 95
84 101
84 104
84 118
84 128
84 131
84 133
84 134
84 135
84 136
84 138
84 140
84 142
84 150
84 152
85 86
85 87
85 88
85 91
85 100
85 102
85 118
85 128
85 131
85 136
86 87
86 88
86 91
86 100
86 102
86 136
87 88
87 91
87 100
87 102
87 108
87 112
87 116
87 117
87 118
87 128
87 131
87 136
88 91
88 100
88 102
88 120
88 122
88 126
88 127
88 129
88 130
88 136
89 91
89 95
89 98
89 99
89 100
89 101
89 102
89 104
89 110
89 119
89 123
89 124
89 132
89 139
89 146
89 148
90 92
90 93
90 94
90 96
90 97
90 103
90 120
90 121
90 133
90 134
90 137
90 144
90 145
91 95
91 98
91 99
91 100
91 101
91 102
91 104
91 105
91 106
91 107
91 109
91 111
91 115
91 118
91 128
91 131
91 135
91 136
91 143
92 93
92 94
92 96
92 97
92 103
92 121
92 122
92 137
92 147
93 94
93 96
93 97
93 103
93 121
93 122
93 137
93 147
94 96
94 97
94 103
94 121
94 137
95 98
95 99
95 100
95 101
95 102
95 104
95 108
95 120
95 122
95 126
95 133
95 134
95 135
95 138
95 140
95 142
95 144
95 145
95 147
95 152
96 97
96 103
96 111
96 121
96 122
96 137
96 147
97 103
97 111
97 121
97 122
97 137
97 147
98 99
98 100
98 101
98 102
98 104
98 110
98 119
98 123
98 124
98 132
98 139
98 146
98 148
99 100
99 101
99 102
99 104
100 101
100 102
100 104
100 136
101 102
101 104
101 152
102 104
102 112
102 116
102 120
102 122
102 126
102 127
102 129
102 130
102 136
102 146
102 148
102 151
103 121
103 137
104 133
104 134
104 135
104 138
104 140
104 142
104 152
105 106
105 107
105 109
105 111
105 115
105 118
105 135
105 136
105 143
106 107
106 109
106 111
106 115
106 118
106 135
106 136
106 143
107 109
107 111
107 115
107 118
107 135
107 136
107 143
108 112
108 116
108 117
108 120
108 122
108 126
108 131
108 133
108 134
108 138
108 140
108 144
108 145
108 147
109 111
109 115
109 118
109 135
109 136
109 143
110 113
110 114
110 119
110 121
110 123
110 124
110 125
110 132
110 139
110 146
110 148
110 152
111 115
111 118
111 135
111 136
111 143
111 147
112 116
112 117
112 129
112 131
112 132
112 136
112 137
112 139
112 141
112 146
112 148
112 151
113 114
113 119
113 121
113 123
113 124
113 125
113 152
114 119
114 121
114 123
114 124
114 125
114 137
114 141
114 152
115 118
115 126
115 135
115 136
115 140
115 143
116 117
116 129
116 131
116 146
116 148
116 151
117 131
118 128
118 131
118 135
118 136
118 143
119 121
119 123
119 124
119 125
119 132
119 139
119 146
119 148
119 152
120 121
120 122
120 126
120 127
120 129
120 130
120 133
120 134
120 138
120 140
120 144
120 145
120 147
121 123
121 124
121 125
121 133
121 134
121 137
121 141
121 144
121 145
121 152
122 126
122 127
122 129
122 130
122 133
122 134
122 138
122 140
122 144
122 145
122 147
123 124
123 125
123 132
123 139
123 146
123 148
123 152
124 125
124 132
124 139
124 146
124 148
124 152
125 137
125 141
125 152
126 127
126 129
126 130
126 133
126 134
126 138
126 140
126 144
126 145
126 147
127 129
127 130
127 135
127 143
127 149
128 131
128 136
129 130
129 146
129 148
129 151
131 136
132 136
132 137
132 139
132 141
132 146
132 148
133 134
133 135
133 138
133 140
133 142
133 144
133 145
133 147
134 135
134 138
134 140
134 142
134 144
134 145
134 147
135 136
135 138
135 140
135 142
135 143
135 149
136 137
136 139
136 141
136 143
136 146
136 148
137 139
137 141
137 146
137 148
138 140
138 142
138 144
138 145
138 147
139 141
139 146
139 148
140 142
140 144
140 145
140 147
141 146
141 148
142 150
142 152
143 149
144 145
144 147
145 147
146 148
146 151
148 151
150 152
0 1
2
3
4
5
6
7
8
9
10 11
12 13
14
15
16
17
18
19 20
21 22
23 24
25
26
27 28
29
30
31 32
33 34
35
36
37 38
39
40
41
42
43
44 45
46
47
48
49
50
51
52 53
54
55 56
57 58
59
60
61
62
63 64
65 66
67
68
69
70
71
72
73
74
75
76
77
78 79
80 81
82
83
84 85
86
87 88
89 90
91 92
93
94 95
96
97 98
99
100
101 102
103 104
105
106
107
108 109
110 111
112 113
114 115
116
117
118 119
120 121
122 123
124
125 126
127 128
129
130 131
132
133
134
135 136
137 138
139
140 141
142
143
144
145
146 147
148
149
150
151 152
